language Essence 1.3

$ formula:  2 * Sum_{k=0..n} binomial(2*k, k) * (binomial(n, k))^2 * (3*k^2 + 2*k+1 - n - 2*k*n)/((k+1)^2 * (k+2) * (n-k+1))
$ result:  586590

letting length be 10
letting avoiding be [[1, 2, 3, 4]]
